469,194
644,292
649,613
561,776
477,806
417,770
435,67
477,6
681,616
751,850
885,806
996,635
1028,583
1125,476
977,110
1020,67
927,67
914,173
681,346
705,423
618,469
801,406
795,369
1081,202
912,-48
611,503
227,637
769,527
826,511
814,474
1081,610
792,64
552,7
681,16
468,298
356,355
